(set-logic QF_UF)
(declare-fun A0 () Bool)
(declare-fun A1 () Bool)
(declare-fun A2 () Bool)
(declare-fun A3 () Bool)
(declare-fun A4 () Bool)
(declare-fun A5 () Bool)
(declare-fun A7 () Bool)
(declare-fun A8 () Bool)
(declare-fun A9 () Bool)
(declare-fun A10 () Bool)
(declare-fun A11 () Bool)
(declare-fun A12 () Bool)
(declare-fun A13 () Bool)
(declare-fun A14 () Bool)
(declare-fun A15 () Bool)
(declare-fun A16 () Bool)
(declare-fun A17 () Bool)
(declare-fun A18 () Bool)
(declare-fun A19 () Bool)
(declare-fun A20 () Bool)
(declare-fun A21 () Bool)
(declare-fun A22 () Bool)
(declare-fun A23 () Bool)
(declare-fun A24 () Bool)
(assert (let ((.def_0 (not A5))) (let ((.def_1 (not A22))) (let ((.def_2 (and .def_1 .def_0))) (let ((.def_3 (= A8 A5))) (let ((.def_4 (not .def_3))) (let ((.def_5 (or .def_4 .def_2))) (let ((.def_6 (not A16))) (let ((.def_7 (or .def_6 A9))) (let ((.def_8 (not A21))) (let ((.def_9 (or A19 .def_8))) (let ((.def_10 (or .def_9 .def_7))) (let ((.def_11 (or .def_10 .def_5))) (let ((.def_12 (not A24))) (let ((.def_13 (and .def_12 A9))) (let ((.def_14 (not .def_13))) (let ((.def_15 (not A13))) (let ((.def_16 (not A7))) (let ((.def_17 (or .def_16 .def_15))) (let ((.def_18 (not .def_17))) (let ((.def_19 (and .def_18 .def_14))) (let ((.def_20 (not A9))) (let ((.def_21 (or .def_1 .def_20))) (let ((.def_22 (not .def_21))) (let ((.def_23 (not A8))) (let ((.def_24 (or .def_23 A19))) (let ((.def_25 (not .def_24))) (let ((.def_26 (and .def_25 .def_22))) (let ((.def_27 (and .def_26 .def_19))) (let ((.def_28 (or .def_27 .def_11))) (let ((.def_29 (or .def_12 A7))) (let ((.def_30 (not A20))) (let ((.def_31 (or .def_30 A4))) (let ((.def_32 (and .def_31 .def_29))) (let ((.def_33 (not A14))) (let ((.def_34 (not A3))) (let ((.def_35 (or .def_34 .def_33))) (let ((.def_36 (and A1 A4))) (let ((.def_37 (and .def_36 .def_35))) (let ((.def_38 (and .def_37 .def_32))) (let ((.def_39 (not .def_38))) (let ((.def_40 (not A23))) (let ((.def_41 (and .def_16 .def_40))) (let ((.def_42 (not .def_41))) (let ((.def_43 (not A2))) (let ((.def_44 (and A9 .def_43))) (let ((.def_45 (not .def_44))) (let ((.def_46 (or .def_45 .def_42))) (let ((.def_47 (not A12))) (let ((.def_48 (or A1 .def_47))) (let ((.def_49 (or .def_8 A14))) (let ((.def_50 (or .def_49 .def_48))) (let ((.def_51 (= .def_50 .def_46))) (let ((.def_52 (and .def_51 .def_39))) (let ((.def_53 (or .def_52 .def_28))) (let ((.def_54 (not A0))) (let ((.def_55 (or .def_54 .def_1))) (let ((.def_56 (not A1))) (let ((.def_57 (or A14 .def_56))) (let ((.def_58 (and .def_57 .def_55))) (let ((.def_59 (not A17))) (let ((.def_60 (or .def_59 A1))) (let ((.def_61 (not .def_60))) (let ((.def_62 (or A21 .def_1))) (let ((.def_63 (or .def_62 .def_61))) (let ((.def_64 (and .def_63 .def_58))) (let ((.def_65 (not .def_64))) (let ((.def_66 (not A11))) (let ((.def_67 (and .def_16 .def_66))) (let ((.def_68 (= .def_30 A4))) (let ((.def_69 (not .def_68))) (let ((.def_70 (and .def_69 .def_67))) (let ((.def_71 (not .def_70))) (let ((.def_72 (not A10))) (let ((.def_73 (or .def_12 .def_72))) (let ((.def_74 (not .def_73))) (let ((.def_75 (= A16 .def_0))) (let ((.def_76 (= .def_75 .def_74))) (let ((.def_77 (and .def_76 .def_71))) (let ((.def_78 (not .def_77))) (let ((.def_79 (and .def_78 .def_65))) (let ((.def_80 (not .def_79))) (let ((.def_81 (or A18 A9))) (let ((.def_82 (not A18))) (let ((.def_83 (or .def_16 .def_82))) (let ((.def_84 (not .def_83))) (let ((.def_85 (and .def_84 .def_81))) (let ((.def_86 (and .def_56 A11))) (let ((.def_87 (and A11 A9))) (let ((.def_88 (not .def_87))) (let ((.def_89 (and .def_88 .def_86))) (let ((.def_90 (or .def_89 .def_85))) (let ((.def_91 (not .def_90))) (let ((.def_92 (not A19))) (let ((.def_93 (and .def_92 A15))) (let ((.def_94 (and A11 .def_33))) (let ((.def_95 (not .def_94))) (let ((.def_96 (and .def_95 .def_93))) (let ((.def_97 (not .def_96))) (let ((.def_98 (and A15 .def_34))) (let ((.def_99 (not .def_98))) (let ((.def_100 (= A1 .def_15))) (let ((.def_101 (not .def_100))) (let ((.def_102 (and .def_101 .def_99))) (let ((.def_103 (not .def_102))) (let ((.def_104 (or .def_103 .def_97))) (let ((.def_105 (and .def_104 .def_91))) (let ((.def_106 (not .def_105))) (let ((.def_107 (or .def_106 .def_80))) (let ((.def_108 (not .def_107))) (let ((.def_109 (or .def_108 .def_53))) (let ((.def_110 (not .def_109))) .def_110))))))))))))))))))))))))))))))))))))))))))))))))))))))))))))))))))))))))))))))))))))))))))))))))))))))))))))))))
(check-sat)
